nN = 10;
nR = 60;
nH = 1;

a = [[18, 20, 17, 17, 22, 24, 25, 24, 18, 24, 20, 21, 22, 17, 20, 21, 23, 21, 19, 25, 19, 21, 21, 25, 23, 21, 23, 18, 19, 20, 25, 23, 18, 22, 20, 20, 15, 17, 22, 15, 15, 18, 16, 17, 20, 23, 23, 24, 21, 16, 22, 15, 24, 23, 23, 25, 17, 18, 17, 19], [17, 19, 16, 19, 25, 21, 24, 23, 23, 22, 15, 20, 25, 24, 19, 21, 20, 19, 15, 22, 20, 20, 22, 18, 16, 25, 25, 18, 17, 25, 16, 18, 16, 17, 20, 25, 21, 17, 22, 15, 20, 18, 17, 19, 15, 21, 16, 16, 23, 19, 25, 22, 20, 17, 23, 25, 20, 18, 22, 20], [20, 17, 16, 24, 25, 24, 16, 20, 25, 20, 16, 22, 20, 25, 15, 17, 21, 16, 22, 24, 17, 16, 16, 17, 18, 17, 17, 18, 19, 23, 25, 15, 19, 20, 17, 16, 20, 19, 21, 17, 18, 24, 20, 15, 23, 23, 19, 25, 22, 25, 24, 25, 16, 23, 25, 16, 18, 18, 22, 25], [22, 17, 22, 23, 19, 16, 22, 19, 21, 24, 17, 25, 15, 15, 18, 17, 24, 19, 21, 15, 17, 23, 21, 15, 22, 21, 23, 18, 15, 15, 21, 20, 21, 21, 19, 22, 23, 20, 18, 17, 24, 17, 15, 19, 16, 15, 23, 20, 15, 18, 25, 15, 20, 22, 21, 15, 24, 25, 21, 24], [23, 24, 25, 25, 15, 20, 20, 25, 21, 17, 21, 20, 20, 24, 23, 22, 23, 16, 21, 25, 25, 21, 17, 19, 21, 24, 22, 25, 16, 25, 19, 24, 21, 22, 22, 20, 20, 22, 16, 24, 15, 21, 21, 22, 21, 18, 20, 16, 15, 20, 22, 19, 17, 16, 25, 25, 21, 17, 23, 18], [15, 24, 16, 16, 15, 22, 18, 20, 24, 19, 22, 18, 24, 22, 22, 16, 22, 16, 21, 16, 21, 24, 17, 23, 22, 20, 17, 23, 19, 23, 20, 21, 18, 22, 16, 15, 22, 15, 22, 16, 21, 25, 17, 18, 19, 23, 22, 22, 25, 19, 21, 25, 23, 16, 21, 15, 19, 15, 21, 22], [18, 16, 19, 22, 20, 15, 18, 21, 22, 19, 20, 22, 17, 25, 18, 20, 16, 24, 21, 23, 23, 15, 16, 23, 20, 22, 17, 21, 23, 17, 20, 23, 25, 16, 17, 22, 25, 24, 24, 24, 19, 15, 23, 19, 17, 18, 18, 24, 18, 19, 19, 21, 21, 18, 19, 17, 23, 20, 15, 18], [18, 22, 18, 24, 23, 16, 21, 23, 20, 20, 16, 24, 24, 18, 19, 15, 22, 22, 15, 23, 21, 23, 25, 24, 18, 16, 17, 19, 15, 19, 18, 19, 22, 21, 22, 16, 15, 16, 15, 21, 16, 20, 19, 18, 24, 24, 16, 23, 16, 15, 19, 20, 19, 17, 17, 24, 20, 23, 18, 18], [15, 15, 23, 15, 19, 23, 22, 18, 22, 17, 24, 24, 20, 23, 19, 16, 16, 25, 25, 21, 24, 22, 18, 16, 25, 23, 16, 25, 22, 15, 24, 17, 15, 17, 22, 21, 15, 23, 22, 20, 16, 21, 22, 23, 16, 19, 22, 17, 24, 22, 25, 23, 24, 22, 23, 21, 19, 15, 23, 24], [21, 22, 17, 21, 25, 22, 20, 22, 23, 21, 15, 23, 20, 15, 22, 15, 24, 22, 21, 16, 21, 16, 21, 16, 17, 19, 23, 25, 17, 17, 24, 21, 15, 15, 20, 19, 19, 22, 21, 20, 22, 25, 24, 15, 19, 17, 23, 22, 21, 22, 17, 24, 16, 21, 25, 25, 16, 17, 21, 25]];
c = [[[0, 0, 0, 0, 0, 0, 0, 0, 0, 0, 0, 0, 0, 0, 0, 0, 0, 0, 0, 0, 0, 0, 0, 0, 0, 0, 0, 0, 0, 0, 0, 0, 0, 0, 0, 0, 0, 0, 0, 0, 0, 0, 0, 0, 0, 0, 0, 0, 0, 0, 0, 0, 0, 0, 0, 0, 0, 0, 0, 0], [45, 50, 44, 44, 48, 39, 32, 34, 48, 47, 45, 43, 38, 43, 47, 43, 32, 42, 36, 36, 34, 32, 42, 49, 50, 30, 32, 30, 43, 34, 36, 46, 38, 33, 36, 49, 50, 39, 34, 45, 50, 50, 41, 41, 35, 36, 40, 32, 49, 50, 30, 41, 37, 34, 44, 49, 44, 34, 39, 45], [43, 31, 44, 45, 30, 44, 33, 50, 30, 31, 39, 47, 50, 50, 35, 35, 48, 39, 47, 35, 38, 30, 35, 32, 39, 36, 37, 44, 33, 40, 47, 41, 41, 38, 47, 49, 47, 48, 43, 47, 32, 32, 30, 44, 31, 44, 30, 31, 34, 37, 42, 46, 49, 32, 46, 46, 33, 33, 34, 48], [41, 50, 42, 37, 46, 49, 41, 41, 44, 44, 44, 50, 30, 47, 42, 39, 38, 48, 50, 37, 32, 33, 31, 46, 43, 36, 36, 30, 41, 34, 33, 34, 43, 42, 40, 40, 31, 45, 32, 30, 49, 38, 41, 46, 47, 45, 49, 36, 43, 42, 31, 48, 34, 38, 34, 42, 50, 36, 48, 44], [36, 31, 40, 32, 36, 30, 34, 32, 35, 35, 45, 36, 45, 36, 38, 37, 47, 35, 36, 41, 36, 31, 35, 32, 31, 37, 47, 48, 39, 38, 49, 31, 50, 45, 35, 41, 49, 41, 45, 37, 45, 42, 43, 40, 46, 36, 41, 43, 34, 50, 42, 41, 35, 31, 48, 46, 40, 49, 30, 37], [47, 48, 40, 40, 41, 44, 31, 43, 33, 34, 48, 43, 36, 48, 45, 40, 41, 44, 47, 50, 46, 45, 40, 32, 39, 37, 50, 46, 31, 32, 34, 30, 31, 45, 47, 35, 39, 45, 34, 30, 31, 40, 37, 39, 30, 33, 39, 32, 50, 37, 32, 35, 46, 37, 44, 46, 30, 39, 35, 33], [41, 39, 49, 50, 37, 39, 37, 50, 47, 33, 34, 39, 39, 50, 50, 36, 39, 44, 36, 30, 41, 35, 36, 38, 32, 50, 38, 44, 33, 35, 30, 31, 43, 37, 44, 36, 34, 41, 50, 48, 46, 30, 44, 40, 40, 40, 38, 44, 42, 32, 39, 40, 48, 50, 46, 42, 35, 49, 46, 50], [36, 30, 44, 36, 35, 39, 36, 31, 49, 34, 37, 30, 42, 36, 36, 46, 40, 36, 43, 46, 43, 43, 42, 35, 37, 39, 41, 49, 44, 37, 31, 39, 30, 45, 50, 43, 36, 36, 35, 46, 31, 45, 46, 42, 31, 49, 50, 50, 33, 44, 35, 32, 42, 37, 48, 32, 49, 44, 35, 43], [30, 38, 45, 31, 47, 30, 37, 34, 31, 48, 41, 36, 40, 49, 34, 46, 45, 47, 38, 30, 34, 44, 48, 44, 43, 43, 49, 30, 44, 31, 50, 32, 36, 36, 48, 35, 30, 32, 35, 38, 41, 48, 47, 37, 30, 41, 31, 49, 46, 49, 37, 39, 46, 35, 36, 35, 40, 32, 45, 50], [47, 48, 35, 30, 30, 34, 39, 49, 32, 36, 40, 42, 40, 36, 31, 44, 49, 40, 40, 35, 45, 40, 34, 36, 41, 42, 36, 45, 40, 30, 31, 35, 33, 39, 38, 48, 50, 44, 49, 38, 45, 43, 47, 30, 36, 37, 32, 46, 42, 35, 33, 42, 40, 46, 34, 32, 45, 32, 50, 39]], [[0, 0, 0, 0, 0, 0, 0, 0, 0, 0, 0, 0, 0, 0, 0, 0, 0, 0, 0, 0, 0, 0, 0, 0, 0, 0, 0, 0, 0, 0, 0, 0, 0, 0, 0, 0, 0, 0, 0, 0, 0, 0, 0, 0, 0, 0, 0, 0, 0, 0, 0, 0, 0, 0, 0, 0, 0, 0, 0, 0], [0, 0, 0, 0, 0, 0, 0, 0, 0, 0, 0, 0, 0, 0, 0, 0, 0, 0, 0, 0, 0, 0, 0, 0, 0, 0, 0, 0, 0, 0, 0, 0, 0, 0, 0, 0, 0, 0, 0, 0, 0, 0, 0, 0, 0, 0, 0, 0, 0, 0, 0, 0, 0, 0, 0, 0, 0, 0, 0, 0], [47, 42, 42, 41, 38, 31, 39, 46, 30, 32, 39, 35, 47, 47, 48, 47, 31, 40, 42, 48, 31, 41, 36, 31, 48, 31, 30, 41, 35, 48, 39, 42, 45, 41, 34, 46, 47, 31, 42, 35, 37, 30, 32, 49, 42, 47, 46, 34, 31, 41, 48, 34, 38, 34, 45, 39, 32, 34, 39, 32], [31, 39, 33, 42, 33, 49, 46, 42, 35, 36, 48, 33, 36, 49, 44, 30, 43, 47, 46, 32, 50, 34, 47, 49, 47, 32, 31, 30, 42, 48, 37, 48, 38, 37, 47, 50, 33, 48, 35, 43, 44, 49, 30, 37, 35, 33, 49, 36, 38, 45, 46, 37, 40, 47, 46, 45, 39, 42, 39, 35], [49, 33, 36, 39, 44, 37, 50, 44, 32, 31, 47, 46, 35, 45, 47, 40, 34, 37, 44, 40, 39, 49, 30, 49, 42, 37, 46, 38, 45, 32, 30, 37, 31, 32, 35, 40, 47, 49, 44, 38, 30, 42, 44, 41, 43, 30, 41, 40, 30, 37, 43, 47, 30, 33, 33, 36, 43, 49, 49, 40], [38, 41, 49, 31, 45, 45, 39, 45, 34, 38, 32, 44, 47, 39, 48, 36, 38, 36, 36, 37, 48, 38, 49, 34, 37, 40, 46, 35, 40, 33, 42, 46, 45, 36, 38, 36, 50, 36, 44, 37, 35, 30, 32, 35, 44, 32, 49, 34, 39, 50, 46, 48, 40, 50, 34, 32, 33, 30, 33, 45], [48, 49, 39, 30, 39, 30, 42, 35, 45, 41, 48, 39, 34, 30, 46, 45, 48, 45, 44, 48, 38, 47, 40, 47, 37, 44, 40, 32, 35, 40, 37, 45, 50, 35, 38, 35, 49, 33, 30, 49, 50, 30, 40, 31, 34, 49, 42, 40, 35, 47, 45, 42, 33, 34, 44, 37, 36, 41, 42, 46], [42, 40, 31, 30, 50, 34, 49, 44, 47, 33, 45, 50, 42, 38, 39, 32, 50, 45, 44, 41, 49, 32, 35, 32, 38, 35, 44, 38, 42, 44, 45, 36, 36, 43, 46, 34, 43, 34, 43, 45, 35, 39, 47, 45, 32, 30, 36, 37, 44, 49, 37, 40, 44, 34, 48, 43, 33, 34, 44, 50], [46, 31, 37, 48, 50, 34, 34, 32, 46, 44, 49, 38, 42, 45, 32, 42, 46, 44, 40, 31, 40, 50, 41, 31, 37, 47, 48, 45, 50, 43, 46, 50, 34, 33, 38, 49, 31, 42, 43, 50, 46, 33, 43, 40, 47, 50, 30, 50, 33, 37, 46, 38, 46, 49, 35, 33, 33, 46, 33, 33], [49, 30, 50, 33, 42, 40, 47, 45, 45, 31, 41, 44, 33, 31, 47, 40, 50, 50, 42, 47, 41, 49, 37, 34, 34, 47, 49, 32, 35, 34, 49, 49, 41, 41, 44, 45, 40, 50, 49, 42, 37, 45, 31, 37, 32, 32, 45, 50, 46, 35, 46, 40, 50, 44, 50, 34, 45, 34, 38, 46]], [[0, 0, 0, 0, 0, 0, 0, 0, 0, 0, 0, 0, 0, 0, 0, 0, 0, 0, 0, 0, 0, 0, 0, 0, 0, 0, 0, 0, 0, 0, 0, 0, 0, 0, 0, 0, 0, 0, 0, 0, 0, 0, 0, 0, 0, 0, 0, 0, 0, 0, 0, 0, 0, 0, 0, 0, 0, 0, 0, 0], [0, 0, 0, 0, 0, 0, 0, 0, 0, 0, 0, 0, 0, 0, 0, 0, 0, 0, 0, 0, 0, 0, 0, 0, 0, 0, 0, 0, 0, 0, 0, 0, 0, 0, 0, 0, 0, 0, 0, 0, 0, 0, 0, 0, 0, 0, 0, 0, 0, 0, 0, 0, 0, 0, 0, 0, 0, 0, 0, 0], [0, 0, 0, 0, 0, 0, 0, 0, 0, 0, 0, 0, 0, 0, 0, 0, 0, 0, 0, 0, 0, 0, 0, 0, 0, 0, 0, 0, 0, 0, 0, 0, 0, 0, 0, 0, 0, 0, 0, 0, 0, 0, 0, 0, 0, 0, 0, 0, 0, 0, 0, 0, 0, 0, 0, 0, 0, 0, 0, 0], [36, 47, 30, 33, 42, 47, 42, 35, 50, 35, 45, 30, 30, 37, 31, 39, 30, 33, 48, 44, 47, 39, 44, 49, 31, 42, 49, 35, 32, 36, 32, 37, 46, 39, 37, 45, 36, 45, 42, 49, 36, 38, 36, 46, 37, 33, 30, 39, 49, 47, 34, 43, 35, 44, 48, 42, 49, 45, 41, 31], [48, 34, 32, 49, 39, 32, 39, 47, 39, 50, 40, 35, 50, 38, 40, 37, 48, 38, 35, 32, 32, 33, 43, 32, 42, 33, 36, 36, 33, 30, 42, 47, 37, 42, 34, 41, 42, 34, 43, 32, 48, 44, 31, 48, 47, 46, 38, 49, 40, 37, 32, 33, 30, 47, 34, 35, 36, 34, 31, 49], [34, 33, 32, 48, 45, 31, 36, 46, 45, 42, 39, 33, 33, 42, 45, 45, 43, 49, 36, 35, 41, 50, 48, 50, 30, 34, 49, 30, 39, 31, 32, 47, 43, 46, 41, 35, 31, 44, 47, 32, 36, 50, 41, 38, 34, 38, 42, 30, 44, 40, 42, 43, 33, 46, 40, 48, 39, 32, 36, 49], [33, 49, 32, 36, 44, 32, 49, 32, 38, 32, 41, 37, 39, 44, 40, 45, 44, 46, 50, 49, 30, 33, 37, 44, 34, 46, 37, 38, 49, 42, 38, 34, 39, 37, 38, 41, 46, 39, 34, 38, 32, 32, 49, 31, 44, 38, 36, 40, 44, 42, 31, 49, 31, 30, 31, 45, 45, 37, 44, 50], [38, 30, 31, 42, 31, 30, 33, 45, 50, 32, 44, 36, 48, 50, 47, 34, 44, 41, 31, 33, 42, 30, 48, 42, 38, 30, 40, 43, 49, 33, 47, 42, 34, 46, 40, 50, 49, 39, 49, 46, 41, 34, 30, 45, 44, 44, 33, 48, 44, 38, 38, 49, 34, 40, 43, 42, 44, 32, 32, 36], [40, 36, 50, 33, 35, 30, 41, 34, 33, 43, 30, 46, 46, 34, 32, 41, 50, 39, 30, 35, 46, 43, 38, 47, 40, 38, 35, 41, 48, 44, 47, 50, 32, 39, 36, 48, 38, 35, 32, 37, 45, 34, 48, 44, 49, 41, 35, 42, 43, 42, 42, 37, 33, 32, 48, 34, 35, 32, 38, 31], [43, 39, 35, 31, 31, 33, 36, 46, 42, 50, 33, 49, 48, 48, 37, 43, 46, 35, 31, 43, 35, 37, 49, 34, 48, 47, 43, 32, 44, 47, 40, 44, 45, 42, 41, 46, 50, 38, 33, 43, 43, 49, 35, 38, 44, 41, 40, 39, 38, 34, 49, 36, 36, 38, 47, 35, 32, 35, 37, 44]], [[0, 0, 0, 0, 0, 0, 0, 0, 0, 0, 0, 0, 0, 0, 0, 0, 0, 0, 0, 0, 0, 0, 0, 0, 0, 0, 0, 0, 0, 0, 0, 0, 0, 0, 0, 0, 0, 0, 0, 0, 0, 0, 0, 0, 0, 0, 0, 0, 0, 0, 0, 0, 0, 0, 0, 0, 0, 0, 0, 0], [0, 0, 0, 0, 0, 0, 0, 0, 0, 0, 0, 0, 0, 0, 0, 0, 0, 0, 0, 0, 0, 0, 0, 0, 0, 0, 0, 0, 0, 0, 0, 0, 0, 0, 0, 0, 0, 0, 0, 0, 0, 0, 0, 0, 0, 0, 0, 0, 0, 0, 0, 0, 0, 0, 0, 0, 0, 0, 0, 0], [0, 0, 0, 0, 0, 0, 0, 0, 0, 0, 0, 0, 0, 0, 0, 0, 0, 0, 0, 0, 0, 0, 0, 0, 0, 0, 0, 0, 0, 0, 0, 0, 0, 0, 0, 0, 0, 0, 0, 0, 0, 0, 0, 0, 0, 0, 0, 0, 0, 0, 0, 0, 0, 0, 0, 0, 0, 0, 0, 0], [0, 0, 0, 0, 0, 0, 0, 0, 0, 0, 0, 0, 0, 0, 0, 0, 0, 0, 0, 0, 0, 0, 0, 0, 0, 0, 0, 0, 0, 0, 0, 0, 0, 0, 0, 0, 0, 0, 0, 0, 0, 0, 0, 0, 0, 0, 0, 0, 0, 0, 0, 0, 0, 0, 0, 0, 0, 0, 0, 0], [44, 33, 34, 41, 31, 39, 49, 41, 38, 40, 50, 32, 35, 45, 47, 34, 38, 32, 32, 46, 46, 32, 39, 50, 33, 40, 49, 34, 33, 46, 49, 38, 44, 46, 30, 45, 45, 42, 49, 47, 36, 43, 37, 39, 32, 45, 44, 42, 31, 46, 37, 30, 41, 38, 36, 43, 48, 30, 39, 35], [31, 41, 43, 46, 32, 35, 48, 31, 43, 42, 48, 34, 36, 40, 49, 32, 46, 41, 44, 37, 30, 42, 42, 45, 49, 42, 36, 41, 43, 33, 49, 50, 45, 41, 41, 49, 42, 30, 42, 36, 38, 37, 37, 30, 32, 39, 42, 38, 48, 50, 30, 40, 37, 34, 46, 49, 44, 33, 34, 48], [30, 31, 30, 36, 48, 47, 38, 47, 33, 35, 45, 41, 33, 50, 34, 34, 43, 33, 33, 34, 37, 34, 38, 34, 48, 44, 33, 47, 33, 30, 49, 45, 44, 39, 49, 48, 42, 34, 39, 47, 46, 47, 35, 42, 42, 35, 34, 46, 44, 49, 40, 41, 43, 43, 46, 35, 50, 50, 34, 33], [43, 31, 50, 48, 46, 50, 32, 34, 39, 46, 32, 35, 32, 47, 45, 44, 31, 33, 38, 50, 40, 35, 48, 42, 38, 42, 45, 37, 32, 41, 31, 41, 33, 48, 30, 38, 33, 34, 46, 34, 31, 40, 49, 35, 35, 48, 33, 35, 33, 42, 38, 35, 30, 48, 45, 40, 44, 34, 42, 35], [46, 45, 38, 34, 48, 33, 34, 48, 36, 32, 31, 34, 37, 36, 48, 39, 40, 48, 45, 38, 33, 37, 50, 31, 44, 33, 35, 44, 36, 34, 50, 37, 50, 41, 31, 43, 45, 45, 40, 37, 49, 46, 44, 41, 31, 40, 41, 32, 44, 41, 36, 47, 30, 31, 47, 42, 33, 46, 34, 43], [47, 32, 41, 46, 46, 43, 46, 33, 45, 42, 41, 48, 30, 37, 45, 33, 41, 37, 41, 32, 46, 46, 34, 41, 41, 44, 34, 48, 35, 37, 42, 48, 47, 42, 32, 47, 39, 35, 43, 44, 39, 33, 34, 49, 30, 32, 36, 43, 32, 50, 37, 50, 45, 32, 31, 46, 32, 50, 44, 48]], [[0, 0, 0, 0, 0, 0, 0, 0, 0, 0, 0, 0, 0, 0, 0, 0, 0, 0, 0, 0, 0, 0, 0, 0, 0, 0, 0, 0, 0, 0, 0, 0, 0, 0, 0, 0, 0, 0, 0, 0, 0, 0, 0, 0, 0, 0, 0, 0, 0, 0, 0, 0, 0, 0, 0, 0, 0, 0, 0, 0], [0, 0, 0, 0, 0, 0, 0, 0, 0, 0, 0, 0, 0, 0, 0, 0, 0, 0, 0, 0, 0, 0, 0, 0, 0, 0, 0, 0, 0, 0, 0, 0, 0, 0, 0, 0, 0, 0, 0, 0, 0, 0, 0, 0, 0, 0, 0, 0, 0, 0, 0, 0, 0, 0, 0, 0, 0, 0, 0, 0], [0, 0, 0, 0, 0, 0, 0, 0, 0, 0, 0, 0, 0, 0, 0, 0, 0, 0, 0, 0, 0, 0, 0, 0, 0, 0, 0, 0, 0, 0, 0, 0, 0, 0, 0, 0, 0, 0, 0, 0, 0, 0, 0, 0, 0, 0, 0, 0, 0, 0, 0, 0, 0, 0, 0, 0, 0, 0, 0, 0], [0, 0, 0, 0, 0, 0, 0, 0, 0, 0, 0, 0, 0, 0, 0, 0, 0, 0, 0, 0, 0, 0, 0, 0, 0, 0, 0, 0, 0, 0, 0, 0, 0, 0, 0, 0, 0, 0, 0, 0, 0, 0, 0, 0, 0, 0, 0, 0, 0, 0, 0, 0, 0, 0, 0, 0, 0, 0, 0, 0], [0, 0, 0, 0, 0, 0, 0, 0, 0, 0, 0, 0, 0, 0, 0, 0, 0, 0, 0, 0, 0, 0, 0, 0, 0, 0, 0, 0, 0, 0, 0, 0, 0, 0, 0, 0, 0, 0, 0, 0, 0, 0, 0, 0, 0, 0, 0, 0, 0, 0, 0, 0, 0, 0, 0, 0, 0, 0, 0, 0], [45, 44, 43, 43, 50, 35, 47, 35, 40, 46, 42, 47, 36, 35, 50, 33, 30, 31, 44, 43, 45, 35, 30, 36, 36, 39, 39, 33, 41, 50, 36, 39, 31, 32, 37, 32, 33, 42, 44, 31, 36, 32, 32, 43, 35, 46, 34, 43, 34, 44, 40, 44, 48, 41, 38, 37, 35, 30, 34, 48], [37, 33, 37, 34, 41, 34, 30, 32, 34, 38, 47, 34, 48, 43, 43, 37, 39, 49, 41, 50, 39, 39, 43, 36, 38, 38, 32, 42, 31, 30, 49, 50, 40, 36, 33, 35, 39, 40, 38, 39, 35, 30, 31, 49, 37, 40, 46, 49, 32, 38, 38, 43, 34, 36, 37, 50, 40, 30, 32, 31], [46, 41, 35, 45, 42, 33, 33, 47, 31, 38, 38, 37, 35, 37, 42, 35, 42, 35, 30, 50, 50, 38, 46, 30, 48, 32, 37, 36, 45, 47, 36, 44, 34, 42, 35, 44, 38, 30, 33, 33, 35, 35, 43, 47, 31, 47, 34, 41, 48, 44, 49, 46, 41, 45, 33, 40, 38, 35, 46, 38], [44, 43, 36, 48, 50, 45, 33, 30, 37, 38, 36, 49, 40, 32, 40, 50, 37, 44, 32, 38, 32, 31, 50, 30, 48, 34, 30, 40, 47, 34, 41, 30, 31, 37, 44, 36, 37, 35, 35, 34, 49, 39, 47, 40, 42, 34, 39, 45, 31, 42, 32, 50, 44, 39, 38, 47, 36, 42, 42, 50], [35, 39, 48, 46, 39, 49, 37, 48, 42, 41, 30, 38, 38, 46, 50, 35, 43, 31, 37, 47, 50, 49, 33, 41, 41, 50, 44, 46, 36, 47, 46, 30, 43, 38, 43, 46, 47, 44, 49, 41, 37, 42, 50, 33, 46, 32, 48, 30, 33, 38, 41, 39, 40, 46, 48, 33, 49, 37, 40, 34]], [[0, 0, 0, 0, 0, 0, 0, 0, 0, 0, 0, 0, 0, 0, 0, 0, 0, 0, 0, 0, 0, 0, 0, 0, 0, 0, 0, 0, 0, 0, 0, 0, 0, 0, 0, 0, 0, 0, 0, 0, 0, 0, 0, 0, 0, 0, 0, 0, 0, 0, 0, 0, 0, 0, 0, 0, 0, 0, 0, 0], [0, 0, 0, 0, 0, 0, 0, 0, 0, 0, 0, 0, 0, 0, 0, 0, 0, 0, 0, 0, 0, 0, 0, 0, 0, 0, 0, 0, 0, 0, 0, 0, 0, 0, 0, 0, 0, 0, 0, 0, 0, 0, 0, 0, 0, 0, 0, 0, 0, 0, 0, 0, 0, 0, 0, 0, 0, 0, 0, 0], [0, 0, 0, 0, 0, 0, 0, 0, 0, 0, 0, 0, 0, 0, 0, 0, 0, 0, 0, 0, 0, 0, 0, 0, 0, 0, 0, 0, 0, 0, 0, 0, 0, 0, 0, 0, 0, 0, 0, 0, 0, 0, 0, 0, 0, 0, 0, 0, 0, 0, 0, 0, 0, 0, 0, 0, 0, 0, 0, 0], [0, 0, 0, 0, 0, 0, 0, 0, 0, 0, 0, 0, 0, 0, 0, 0, 0, 0, 0, 0, 0, 0, 0, 0, 0, 0, 0, 0, 0, 0, 0, 0, 0, 0, 0, 0, 0, 0, 0, 0, 0, 0, 0, 0, 0, 0, 0, 0, 0, 0, 0, 0, 0, 0, 0, 0, 0, 0, 0, 0], [0, 0, 0, 0, 0, 0, 0, 0, 0, 0, 0, 0, 0, 0, 0, 0, 0, 0, 0, 0, 0, 0, 0, 0, 0, 0, 0, 0, 0, 0, 0, 0, 0, 0, 0, 0, 0, 0, 0, 0, 0, 0, 0, 0, 0, 0, 0, 0, 0, 0, 0, 0, 0, 0, 0, 0, 0, 0, 0, 0], [0, 0, 0, 0, 0, 0, 0, 0, 0, 0, 0, 0, 0, 0, 0, 0, 0, 0, 0, 0, 0, 0, 0, 0, 0, 0, 0, 0, 0, 0, 0, 0, 0, 0, 0, 0, 0, 0, 0, 0, 0, 0, 0, 0, 0, 0, 0, 0, 0, 0, 0, 0, 0, 0, 0, 0, 0, 0, 0, 0], [45, 50, 42, 37, 40, 44, 33, 50, 48, 34, 44, 36, 40, 45, 38, 43, 33, 47, 31, 37, 31, 40, 32, 35, 50, 32, 42, 41, 48, 34, 36, 46, 30, 41, 41, 37, 48, 49, 43, 48, 42, 39, 42, 30, 34, 49, 50, 36, 34, 46, 40, 39, 47, 40, 35, 31, 32, 38, 32, 32], [43, 34, 37, 33, 44, 40, 35, 44, 50, 44, 34, 37, 40, 45, 38, 45, 49, 35, 42, 50, 48, 40, 33, 32, 49, 48, 47, 42, 32, 41, 49, 39, 45, 44, 34, 37, 41, 33, 50, 41, 49, 39, 46, 37, 43, 33, 41, 34, 48, 38, 31, 40, 46, 41, 34, 46, 35, 36, 42, 42], [30, 43, 49, 33, 46, 30, 37, 44, 50, 47, 49, 38, 32, 50, 35, 31, 34, 33, 46, 45, 40, 33, 33, 46, 49, 39, 40, 34, 42, 38, 45, 32, 44, 44, 42, 34, 32, 45, 39, 31, 39, 45, 32, 39, 43, 39, 46, 44, 50, 47, 39, 36, 42, 48, 44, 43, 30, 43, 43, 31], [33, 32, 38, 40, 47, 34, 41, 48, 43, 40, 39, 38, 35, 30, 44, 47, 46, 38, 33, 32, 32, 36, 39, 38, 36, 40, 30, 30, 50, 40, 35, 41, 42, 39, 40, 46, 33, 33, 46, 34, 39, 44, 45, 37, 48, 33, 41, 48, 44, 49, 41, 42, 47, 43, 30, 44, 41, 46, 38, 43]], [[0, 0, 0, 0, 0, 0, 0, 0, 0, 0, 0, 0, 0, 0, 0, 0, 0, 0, 0, 0, 0, 0, 0, 0, 0, 0, 0, 0, 0, 0, 0, 0, 0, 0, 0, 0, 0, 0, 0, 0, 0, 0, 0, 0, 0, 0, 0, 0, 0, 0, 0, 0, 0, 0, 0, 0, 0, 0, 0, 0], [0, 0, 0, 0, 0, 0, 0, 0, 0, 0, 0, 0, 0, 0, 0, 0, 0, 0, 0, 0, 0, 0, 0, 0, 0, 0, 0, 0, 0, 0, 0, 0, 0, 0, 0, 0, 0, 0, 0, 0, 0, 0, 0, 0, 0, 0, 0, 0, 0, 0, 0, 0, 0, 0, 0, 0, 0, 0, 0, 0], [0, 0, 0, 0, 0, 0, 0, 0, 0, 0, 0, 0, 0, 0, 0, 0, 0, 0, 0, 0, 0, 0, 0, 0, 0, 0, 0, 0, 0, 0, 0, 0, 0, 0, 0, 0, 0, 0, 0, 0, 0, 0, 0, 0, 0, 0, 0, 0, 0, 0, 0, 0, 0, 0, 0, 0, 0, 0, 0, 0], [0, 0, 0, 0, 0, 0, 0, 0, 0, 0, 0, 0, 0, 0, 0, 0, 0, 0, 0, 0, 0, 0, 0, 0, 0, 0, 0, 0, 0, 0, 0, 0, 0, 0, 0, 0, 0, 0, 0, 0, 0, 0, 0, 0, 0, 0, 0, 0, 0, 0, 0, 0, 0, 0, 0, 0, 0, 0, 0, 0], [0, 0, 0, 0, 0, 0, 0, 0, 0, 0, 0, 0, 0, 0, 0, 0, 0, 0, 0, 0, 0, 0, 0, 0, 0, 0, 0, 0, 0, 0, 0, 0, 0, 0, 0, 0, 0, 0, 0, 0, 0, 0, 0, 0, 0, 0, 0, 0, 0, 0, 0, 0, 0, 0, 0, 0, 0, 0, 0, 0], [0, 0, 0, 0, 0, 0, 0, 0, 0, 0, 0, 0, 0, 0, 0, 0, 0, 0, 0, 0, 0, 0, 0, 0, 0, 0, 0, 0, 0, 0, 0, 0, 0, 0, 0, 0, 0, 0, 0, 0, 0, 0, 0, 0, 0, 0, 0, 0, 0, 0, 0, 0, 0, 0, 0, 0, 0, 0, 0, 0], [0, 0, 0, 0, 0, 0, 0, 0, 0, 0, 0, 0, 0, 0, 0, 0, 0, 0, 0, 0, 0, 0, 0, 0, 0, 0, 0, 0, 0, 0, 0, 0, 0, 0, 0, 0, 0, 0, 0, 0, 0, 0, 0, 0, 0, 0, 0, 0, 0, 0, 0, 0, 0, 0, 0, 0, 0, 0, 0, 0], [45, 33, 32, 39, 35, 48, 30, 31, 32, 32, 43, 40, 34, 46, 37, 44, 48, 41, 40, 31, 43, 34, 44, 47, 41, 38, 35, 50, 36, 35, 49, 35, 34, 37, 46, 30, 38, 45, 43, 30, 49, 32, 50, 30, 35, 43, 42, 46, 48, 48, 31, 32, 37, 47, 42, 46, 36, 33, 37, 47], [46, 37, 40, 42, 30, 47, 49, 33, 35, 45, 32, 30, 50, 46, 34, 45, 36, 50, 39, 34, 42, 40, 45, 41, 44, 46, 32, 40, 50, 41, 30, 42, 49, 47, 44, 48, 45, 36, 40, 37, 33, 32, 41, 46, 41, 36, 50, 48, 34, 38, 50, 34, 48, 42, 32, 34, 32, 43, 50, 37], [39, 36, 37, 37, 36, 49, 39, 38, 49, 36, 37, 38, 50, 30, 42, 48, 39, 33, 48, 34, 30, 39, 39, 50, 50, 41, 47, 36, 46, 32, 40, 32, 35, 35, 42, 47, 43, 32, 30, 35, 37, 44, 38, 42, 42, 46, 43, 48, 41, 45, 36, 41, 50, 41, 43, 35, 50, 42, 47, 40]], [[0, 0, 0, 0, 0, 0, 0, 0, 0, 0, 0, 0, 0, 0, 0, 0, 0, 0, 0, 0, 0, 0, 0, 0, 0, 0, 0, 0, 0, 0, 0, 0, 0, 0, 0, 0, 0, 0, 0, 0, 0, 0, 0, 0, 0, 0, 0, 0, 0, 0, 0, 0, 0, 0, 0, 0, 0, 0, 0, 0], [0, 0, 0, 0, 0, 0, 0, 0, 0, 0, 0, 0, 0, 0, 0, 0, 0, 0, 0, 0, 0, 0, 0, 0, 0, 0, 0, 0, 0, 0, 0, 0, 0, 0, 0, 0, 0, 0, 0, 0, 0, 0, 0, 0, 0, 0, 0, 0, 0, 0, 0, 0, 0, 0, 0, 0, 0, 0, 0, 0], [0, 0, 0, 0, 0, 0, 0, 0, 0, 0, 0, 0, 0, 0, 0, 0, 0, 0, 0, 0, 0, 0, 0, 0, 0, 0, 0, 0, 0, 0, 0, 0, 0, 0, 0, 0, 0, 0, 0, 0, 0, 0, 0, 0, 0, 0, 0, 0, 0, 0, 0, 0, 0, 0, 0, 0, 0, 0, 0, 0], [0, 0, 0, 0, 0, 0, 0, 0, 0, 0, 0, 0, 0, 0, 0, 0, 0, 0, 0, 0, 0, 0, 0, 0, 0, 0, 0, 0, 0, 0, 0, 0, 0, 0, 0, 0, 0, 0, 0, 0, 0, 0, 0, 0, 0, 0, 0, 0, 0, 0, 0, 0, 0, 0, 0, 0, 0, 0, 0, 0], [0, 0, 0, 0, 0, 0, 0, 0, 0, 0, 0, 0, 0, 0, 0, 0, 0, 0, 0, 0, 0, 0, 0, 0, 0, 0, 0, 0, 0, 0, 0, 0, 0, 0, 0, 0, 0, 0, 0, 0, 0, 0, 0, 0, 0, 0, 0, 0, 0, 0, 0, 0, 0, 0, 0, 0, 0, 0, 0, 0], [0, 0, 0, 0, 0, 0, 0, 0, 0, 0, 0, 0, 0, 0, 0, 0, 0, 0, 0, 0, 0, 0, 0, 0, 0, 0, 0, 0, 0, 0, 0, 0, 0, 0, 0, 0, 0, 0, 0, 0, 0, 0, 0, 0, 0, 0, 0, 0, 0, 0, 0, 0, 0, 0, 0, 0, 0, 0, 0, 0], [0, 0, 0, 0, 0, 0, 0, 0, 0, 0, 0, 0, 0, 0, 0, 0, 0, 0, 0, 0, 0, 0, 0, 0, 0, 0, 0, 0, 0, 0, 0, 0, 0, 0, 0, 0, 0, 0, 0, 0, 0, 0, 0, 0, 0, 0, 0, 0, 0, 0, 0, 0, 0, 0, 0, 0, 0, 0, 0, 0], [0, 0, 0, 0, 0, 0, 0, 0, 0, 0, 0, 0, 0, 0, 0, 0, 0, 0, 0, 0, 0, 0, 0, 0, 0, 0, 0, 0, 0, 0, 0, 0, 0, 0, 0, 0, 0, 0, 0, 0, 0, 0, 0, 0, 0, 0, 0, 0, 0, 0, 0, 0, 0, 0, 0, 0, 0, 0, 0, 0], [34, 42, 33, 43, 46, 38, 35, 34, 42, 45, 39, 39, 30, 42, 49, 38, 44, 41, 40, 48, 49, 49, 49, 38, 31, 39, 32, 47, 39, 50, 34, 39, 31, 44, 47, 49, 34, 30, 37, 34, 37, 32, 36, 41, 35, 34, 47, 40, 43, 38, 47, 47, 39, 48, 41, 45, 31, 45, 34, 30], [41, 38, 49, 50, 37, 38, 38, 45, 31, 39, 41, 49, 43, 30, 42, 46, 38, 30, 35, 30, 31, 32, 50, 37, 47, 46, 35, 46, 41, 40, 45, 50, 33, 42, 38, 33, 43, 45, 30, 41, 46, 35, 35, 40, 42, 36, 49, 50, 30, 31, 43, 39, 43, 50, 50, 32, 48, 48, 50, 45]], [[0, 0, 0, 0, 0, 0, 0, 0, 0, 0, 0, 0, 0, 0, 0, 0, 0, 0, 0, 0, 0, 0, 0, 0, 0, 0, 0, 0, 0, 0, 0, 0, 0, 0, 0, 0, 0, 0, 0, 0, 0, 0, 0, 0, 0, 0, 0, 0, 0, 0, 0, 0, 0, 0, 0, 0, 0, 0, 0, 0], [0, 0, 0, 0, 0, 0, 0, 0, 0, 0, 0, 0, 0, 0, 0, 0, 0, 0, 0, 0, 0, 0, 0, 0, 0, 0, 0, 0, 0, 0, 0, 0, 0, 0, 0, 0, 0, 0, 0, 0, 0, 0, 0, 0, 0, 0, 0, 0, 0, 0, 0, 0, 0, 0, 0, 0, 0, 0, 0, 0], [0, 0, 0, 0, 0, 0, 0, 0, 0, 0, 0, 0, 0, 0, 0, 0, 0, 0, 0, 0, 0, 0, 0, 0, 0, 0, 0, 0, 0, 0, 0, 0, 0, 0, 0, 0, 0, 0, 0, 0, 0, 0, 0, 0, 0, 0, 0, 0, 0, 0, 0, 0, 0, 0, 0, 0, 0, 0, 0, 0], [0, 0, 0, 0, 0, 0, 0, 0, 0, 0, 0, 0, 0, 0, 0, 0, 0, 0, 0, 0, 0, 0, 0, 0, 0, 0, 0, 0, 0, 0, 0, 0, 0, 0, 0, 0, 0, 0, 0, 0, 0, 0, 0, 0, 0, 0, 0, 0, 0, 0, 0, 0, 0, 0, 0, 0, 0, 0, 0, 0], [0, 0, 0, 0, 0, 0, 0, 0, 0, 0, 0, 0, 0, 0, 0, 0, 0, 0, 0, 0, 0, 0, 0, 0, 0, 0, 0, 0, 0, 0, 0, 0, 0, 0, 0, 0, 0, 0, 0, 0, 0, 0, 0, 0, 0, 0, 0, 0, 0, 0, 0, 0, 0, 0, 0, 0, 0, 0, 0, 0], [0, 0, 0, 0, 0, 0, 0, 0, 0, 0, 0, 0, 0, 0, 0, 0, 0, 0, 0, 0, 0, 0, 0, 0, 0, 0, 0, 0, 0, 0, 0, 0, 0, 0, 0, 0, 0, 0, 0, 0, 0, 0, 0, 0, 0, 0, 0, 0, 0, 0, 0, 0, 0, 0, 0, 0, 0, 0, 0, 0], [0, 0, 0, 0, 0, 0, 0, 0, 0, 0, 0, 0, 0, 0, 0, 0, 0, 0, 0, 0, 0, 0, 0, 0, 0, 0, 0, 0, 0, 0, 0, 0, 0, 0, 0, 0, 0, 0, 0, 0, 0, 0, 0, 0, 0, 0, 0, 0, 0, 0, 0, 0, 0, 0, 0, 0, 0, 0, 0, 0], [0, 0, 0, 0, 0, 0, 0, 0, 0, 0, 0, 0, 0, 0, 0, 0, 0, 0, 0, 0, 0, 0, 0, 0, 0, 0, 0, 0, 0, 0, 0, 0, 0, 0, 0, 0, 0, 0, 0, 0, 0, 0, 0, 0, 0, 0, 0, 0, 0, 0, 0, 0, 0, 0, 0, 0, 0, 0, 0, 0], [0, 0, 0, 0, 0, 0, 0, 0, 0, 0, 0, 0, 0, 0, 0, 0, 0, 0, 0, 0, 0, 0, 0, 0, 0, 0, 0, 0, 0, 0, 0, 0, 0, 0, 0, 0, 0, 0, 0, 0, 0, 0, 0, 0, 0, 0, 0, 0, 0, 0, 0, 0, 0, 0, 0, 0, 0, 0, 0, 0], [38, 34, 32, 36, 50, 31, 37, 46, 36, 43, 41, 46, 30, 48, 32, 47, 36, 31, 33, 50, 37, 31, 50, 43, 32, 37, 32, 32, 41, 34, 39, 43, 46, 43, 40, 31, 32, 38, 47, 33, 34, 43, 36, 44, 45, 49, 45, 46, 35, 30, 44, 44, 31, 36, 46, 33, 39, 46, 46, 30]], [[0, 0, 0, 0, 0, 0, 0, 0, 0, 0, 0, 0, 0, 0, 0, 0, 0, 0, 0, 0, 0, 0, 0, 0, 0, 0, 0, 0, 0, 0, 0, 0, 0, 0, 0, 0, 0, 0, 0, 0, 0, 0, 0, 0, 0, 0, 0, 0, 0, 0, 0, 0, 0, 0, 0, 0, 0, 0, 0, 0], [0, 0, 0, 0, 0, 0, 0, 0, 0, 0, 0, 0, 0, 0, 0, 0, 0, 0, 0, 0, 0, 0, 0, 0, 0, 0, 0, 0, 0, 0, 0, 0, 0, 0, 0, 0, 0, 0, 0, 0, 0, 0, 0, 0, 0, 0, 0, 0, 0, 0, 0, 0, 0, 0, 0, 0, 0, 0, 0, 0], [0, 0, 0, 0, 0, 0, 0, 0, 0, 0, 0, 0, 0, 0, 0, 0, 0, 0, 0, 0, 0, 0, 0, 0, 0, 0, 0, 0, 0, 0, 0, 0, 0, 0, 0, 0, 0, 0, 0, 0, 0, 0, 0, 0, 0, 0, 0, 0, 0, 0, 0, 0, 0, 0, 0, 0, 0, 0, 0, 0], [0, 0, 0, 0, 0, 0, 0, 0, 0, 0, 0, 0, 0, 0, 0, 0, 0, 0, 0, 0, 0, 0, 0, 0, 0, 0, 0, 0, 0, 0, 0, 0, 0, 0, 0, 0, 0, 0, 0, 0, 0, 0, 0, 0, 0, 0, 0, 0, 0, 0, 0, 0, 0, 0, 0, 0, 0, 0, 0, 0], [0, 0, 0, 0, 0, 0, 0, 0, 0, 0, 0, 0, 0, 0, 0, 0, 0, 0, 0, 0, 0, 0, 0, 0, 0, 0, 0, 0, 0, 0, 0, 0, 0, 0, 0, 0, 0, 0, 0, 0, 0, 0, 0, 0, 0, 0, 0, 0, 0, 0, 0, 0, 0, 0, 0, 0, 0, 0, 0, 0], [0, 0, 0, 0, 0, 0, 0, 0, 0, 0, 0, 0, 0, 0, 0, 0, 0, 0, 0, 0, 0, 0, 0, 0, 0, 0, 0, 0, 0, 0, 0, 0, 0, 0, 0, 0, 0, 0, 0, 0, 0, 0, 0, 0, 0, 0, 0, 0, 0, 0, 0, 0, 0, 0, 0, 0, 0, 0, 0, 0], [0, 0, 0, 0, 0, 0, 0, 0, 0, 0, 0, 0, 0, 0, 0, 0, 0, 0, 0, 0, 0, 0, 0, 0, 0, 0, 0, 0, 0, 0, 0, 0, 0, 0, 0, 0, 0, 0, 0, 0, 0, 0, 0, 0, 0, 0, 0, 0, 0, 0, 0, 0, 0, 0, 0, 0, 0, 0, 0, 0], [0, 0, 0, 0, 0, 0, 0, 0, 0, 0, 0, 0, 0, 0, 0, 0, 0, 0, 0, 0, 0, 0, 0, 0, 0, 0, 0, 0, 0, 0, 0, 0, 0, 0, 0, 0, 0, 0, 0, 0, 0, 0, 0, 0, 0, 0, 0, 0, 0, 0, 0, 0, 0, 0, 0, 0, 0, 0, 0, 0], [0, 0, 0, 0, 0, 0, 0, 0, 0, 0, 0, 0, 0, 0, 0, 0, 0, 0, 0, 0, 0, 0, 0, 0, 0, 0, 0, 0, 0, 0, 0, 0, 0, 0, 0, 0, 0, 0, 0, 0, 0, 0, 0, 0, 0, 0, 0, 0, 0, 0, 0, 0, 0, 0, 0, 0, 0, 0, 0, 0], [0, 0, 0, 0, 0, 0, 0, 0, 0, 0, 0, 0, 0, 0, 0, 0, 0, 0, 0, 0, 0, 0, 0, 0, 0, 0, 0, 0, 0, 0, 0, 0, 0, 0, 0, 0, 0, 0, 0, 0, 0, 0, 0, 0, 0, 0, 0, 0, 0, 0, 0, 0, 0, 0, 0, 0, 0, 0, 0, 0]]];

q = [[[25], [24], [16], [25], [5], [14], [10], [14], [23], [21], [20], [22], [22], [12], [22], [9], [15], [17], [23], [7], [14], [10], [6], [6], [8], [22], [14], [14], [21], [25], [23], [20], [17], [5], [17], [13], [7], [25], [21], [21], [25], [16], [14], [7], [9], [7], [7], [15], [22], [14], [25], [17], [9], [19], [20], [6], [7], [6], [22], [6]], [[12], [19], [20], [18], [22], [10], [6], [18], [20], [22], [19], [24], [17], [7], [7], [11], [8], [13], [17], [11], [24], [10], [25], [18], [6], [25], [9], [16], [15], [9], [17], [15], [8], [5], [13], [16], [12], [20], [18], [23], [6], [10], [24], [25], [19], [14], [13], [24], [16], [13], [6], [19], [10], [16], [12], [5], [8], [13], [13], [7]], [[14], [25], [19], [5], [13], [7], [24], [20], [8], [6], [13], [7], [19], [15], [18], [21], [20], [9], [7], [14], [19], [14], [25], [13], [7], [5], [18], [14], [12], [10], [20], [8], [21], [21], [19], [13], [25], [8], [9], [7], [14], [14], [11], [16], [7], [11], [21], [21], [25], [13], [13], [5], [5], [20], [23], [23], [25], [13], [19], [7]], [[20], [15], [11], [16], [20], [21], [20], [17], [7], [8], [10], [13], [5], [6], [24], [22], [6], [5], [9], [25], [5], [9], [7], [9], [20], [5], [13], [25], [5], [12], [12], [23], [16], [21], [13], [6], [8], [5], [21], [20], [8], [20], [15], [7], [11], [25], [20], [10], [11], [9], [13], [24], [18], [6], [11], [19], [6], [23], [22], [7]], [[18], [8], [23], [16], [20], [22], [23], [13], [6], [24], [5], [25], [23], [8], [21], [12], [19], [8], [8], [13], [17], [5], [9], [7], [23], [18], [8], [10], [12], [17], [22], [23], [25], [14], [25], [5], [15], [20], [23], [21], [15], [16], [13], [18], [21], [18], [5], [24], [22], [17], [7], [10], [14], [7], [24], [14], [9], [8], [13], [16]], [[13], [25], [24], [22], [5], [10], [22], [22], [9], [18], [10], [21], [23], [21], [8], [22], [9], [25], [24], [19], [21], [8], [8], [18], [17], [5], [13], [11], [13], [9], [22], [8], [12], [23], [7], [22], [15], [16], [10], [7], [9], [8], [17], [7], [5], [21], [8], [17], [9], [16], [5], [21], [13], [5], [17], [7], [19], [8], [24], [10]], [[20], [24], [21], [17], [20], [21], [25], [16], [6], [25], [12], [25], [21], [16], [22], [21], [6], [25], [13], [14], [13], [11], [11], [22], [7], [8], [9], [14], [14], [20], [12], [5], [14], [6], [16], [11], [18], [17], [10], [19], [7], [9], [13], [22], [24], [15], [22], [7], [5], [16], [10], [21], [24], [17], [15], [19], [14], [8], [25], [6]], [[10], [15], [16], [25], [15], [12], [14], [20], [24], [22], [19], [8], [9], [7], [23], [22], [25], [14], [23], [22], [23], [21], [11], [21], [6], [24], [11], [25], [18], [8], [25], [23], [22], [25], [9], [18], [16], [17], [12], [24], [25], [16], [8], [11], [13], [9], [13], [20], [6], [21], [14], [17], [24], [21], [15], [17], [17], [15], [17], [5]], [[20], [5], [15], [10], [6], [24], [6], [10], [25], [10], [20], [21], [13], [25], [22], [14], [19], [12], [22], [13], [18], [15], [17], [6], [16], [12], [19], [14], [20], [6], [22], [18], [7], [11], [14], [12], [20], [6], [5], [11], [14], [18], [6], [7], [12], [17], [24], [17], [8], [5], [19], [23], [6], [15], [10], [21], [18], [23], [15], [12]], [[5], [19], [18], [25], [25], [14], [23], [21], [22], [11], [15], [21], [19], [11], [6], [5], [21], [14], [17], [10], [19], [13], [5], [20], [23], [19], [21], [9], [12], [20], [23], [14], [21], [12], [24], [25], [16], [6], [25], [12], [5], [6], [18], [25], [19], [17], [12], [24], [12], [12], [11], [18], [17], [5], [22], [8], [20], [13], [17], [6]]];
Q = [[74], [70], [70], [65], [74], [69], [74], [80], [69], [75]];
